1
10
45
1 2 70
1 3 108
1 4 192
1 5 163
1 6 200
1 7 324
1 8 469
1 9 557
1 10 613
2 3 78
2 4 171
2 5 210
2 6 247
2 7 390
2 8 453
2 9 622
2 10 679
3 4 95
3 5 150
3 6 187
3 7 302
3 8 376
3 9 540
3 10 597
4 5 116
4 6 121
4 7 202
4 8 282
4 9 446
4 10 503
5 6 42
5 7 167
5 8 311
5 9 399
5 10 456
6 7 129
6 8 274
6 9 361
6 10 418
7 8 144
7 9 235
7 10 292
8 9 219
8 10 276
9 10 64